NAME: instance_3256
TYPE: TSP
DIMENSION: 20
EDGE_WEIGHT_TYPE: EUC_2D
NODE_COORD_SECTION
0 26.91 72.14
1 71.18 73.12
2 43.41 17.74
3 88.83 6.36
4 60.20 5.08
5 87.37 13.31
6 69.67 35.06
7 18.54 29.80
8 96.25 73.78
9 45.01 94.73
10 79.90 54.96
11 87.44 49.75
12 12.52 86.24
13 87.68 59.83
14 37.85 53.86
15 98.05 8.93
16 43.62 34.74
17 59.53 27.76
18 30.12 11.37
19 9.06 32.35
EOF
